<number of tasks>
100

<cycle time>
1000

<order strength>
0.195


<task times>
1 648
2 543
3 602
4 509
5 451
6 538
7 656
8 576
9 536
10 502
11 457
12 373
13 615
14 345
15 457
16 462
17 438
18 413
19 533
20 520
21 480
22 519
23 733
24 519
25 327
26 409
27 338
28 445
29 584
30 574
31 430
32 484
33 694
34 503
35 398
36 448
37 423
38 211
39 724
40 478
41 621
42 147
43 657
44 318
45 318
46 367
47 421
48 445
49 394
50 506
51 596
52 348
53 389
54 561
55 520
56 222
57 509
58 540
59 478
60 504
61 586
62 607
63 464
64 599
65 494
66 425
67 401
68 516
69 640
70 306
71 418
72 621
73 535
74 420
75 417
76 444
77 468
78 652
79 450
80 394
81 388
82 484
83 497
84 689
85 473
86 584
87 650
88 685
89 435
90 541
91 550
92 350
93 514
94 565
95 687
96 430
97 694
98 549
99 543
100 413

<precedence relations>
1,9
2,9
3,9
4,9
5,27
6,15
6,17
6,18
6,44
7,12
7,16
8,10
8,11
8,13
8,14
9,19
9,20
9,21
9,22
9,23
9,24
9,25
9,26
9,48
9,65
10,27
11,27
12,27
13,27
14,27
15,29
16,28
16,30
16,31
17,87
20,42
25,87
26,98
27,32
27,33
27,34
27,35
27,36
27,37
27,38
27,39
28,40
29,41
32,43
34,71
38,71
40,44
42,79
43,45
43,47
44,46
44,48
44,49
44,50
45,51
46,52
46,53
46,56
47,54
47,55
49,57
50,56
51,60
52,59
53,58
53,77
54,61
54,62
54,63
54,64
54,66
57,65
58,67
59,69
60,72
61,68
62,73
62,74
63,70
65,90
66,71
67,76
68,75
70,80
71,77
73,78
74,79
75,82
76,81
76,83
76,84
76,90
77,85
77,86
78,87
78,88
79,89
80,91
81,92
82,96
83,93
84,94
85,95
86,99
89,97
89,100
90,98

<end>
